assets/logs/7_8x8_clingo/7_8x8_clingo.solution.log

---------------------------------
| 35| 50| 39| 49| 31| 46| 28| 53|
---------------------------------
| 41| 47| 33| 48| 26| 51| 29|  0|
---------------------------------
| 52| 37|  4| 45| 27| 30| 44|  0|
---------------------------------
|  6| 43| 25|  0| 10| 24|  0| 32|
---------------------------------
| 23|  2|  8| 22|  0| 34| 12| 42|
---------------------------------
|  5| 11| 21| 15|  0| 40| 18| 36|
---------------------------------
|  0| 17|  7|  1| 20|  0|  0| 14|
---------------------------------
|  9|  3| 13| 19|  0| 16| 38|  0|
---------------------------------

| n = 8 | k = 8 | coverage = 60, 93.75%
 Time 300.003
 Name 7_8x8_clingo

