assets/logs/7_8x8_clingo/7_8x8_clingo.log
clingo version 5.4.0
Reading from ...sets/logs/7_8x8_clingo/knights_tour.lp ...
Solving...
Answer: 1
occ(1,7,7) occ(1,3,8) occ(1,6,5) occ(1,8,5) occ(1,7,1) occ(1,7,6) occ(1,5,5) occ(1,4,7) occ(2,7,4) occ(3,5,2) coverage(6)
Optimization: -6
Answer: 2
occ(1,7,7) occ(1,3,8) occ(1,6,5) occ(1,8,5) occ(1,7,1) occ(1,7,6) occ(1,5,5) occ(1,4,7) occ(2,7,4) occ(3,5,2) coverage(11) occ(16,1,3) occ(20,1,7) occ(42,1,4) occ(50,1,2) occ(56,1,1) occ(14,2,1) occ(18,2,5) occ(44,2,2) occ(54,2,3) occ(22,3,6) occ(26,3,2) occ(40,3,5) occ(48,3,3) occ(52,3,1) occ(12,4,2) occ(24,4,4) occ(46,4,1) occ(9,5,3) occ(28,5,1) occ(38,5,6) occ(4,6,2) occ(5,6,4) occ(10,6,1) occ(30,6,3) occ(36,6,8) occ(7,7,2) occ(8,7,3) occ(32,7,5) occ(6,8,1) occ(34,8,7)
Optimization: -11
Answer: 3
occ(1,7,7) occ(1,3,8) occ(1,6,5) occ(1,8,5) occ(1,7,1) occ(1,7,6) occ(1,5,5) occ(1,4,7) occ(2,7,4) occ(3,5,2) coverage(13) occ(16,1,3) occ(20,1,7) occ(42,1,4) occ(50,1,2) occ(56,1,1) occ(14,2,1) occ(18,2,5) occ(44,2,2) occ(54,2,3) occ(22,3,6) occ(26,3,2) occ(40,3,5) occ(48,3,3) occ(52,3,1) occ(12,4,2) occ(24,4,4) occ(46,4,1) occ(9,5,3) occ(10,5,4) occ(28,5,1) occ(38,5,6) occ(4,6,2) occ(5,6,4) occ(11,6,1) occ(30,6,3) occ(36,6,8) occ(7,7,2) occ(8,7,3) occ(32,7,5) occ(6,8,1) occ(34,8,7)
Optimization: -13
Answer: 4
occ(1,7,7) occ(1,3,8) occ(1,6,5) occ(1,8,5) occ(1,7,1) occ(1,7,6) occ(1,5,5) occ(1,4,7) occ(2,7,4) occ(3,5,2) coverage(15) occ(16,1,3) occ(20,1,7) occ(42,1,4) occ(50,1,2) occ(56,1,1) occ(14,2,1) occ(18,2,5) occ(44,2,2) occ(54,2,3) occ(22,3,6) occ(26,3,2) occ(40,3,5) occ(48,3,3) occ(52,3,1) occ(12,4,2) occ(24,4,4) occ(46,4,1) occ(9,5,3) occ(10,5,4) occ(28,5,1) occ(38,5,6) occ(4,6,2) occ(5,6,4) occ(11,6,1) occ(30,6,3) occ(36,6,8) occ(7,7,2) occ(8,7,3) occ(32,7,5) occ(6,8,1) occ(13,8,2) occ(34,8,7)
Optimization: -15
Answer: 5
occ(1,7,7) occ(1,3,8) occ(1,6,5) occ(1,8,5) occ(1,7,1) occ(1,7,6) occ(1,5,5) occ(1,4,7) occ(2,7,4) occ(3,5,2) coverage(17) occ(10,1,4) occ(36,1,5) occ(42,1,6) occ(8,2,2) occ(12,2,6) occ(40,2,8) occ(46,2,7) occ(18,3,2) occ(34,3,4) occ(38,3,6) occ(44,3,5) occ(5,4,4) occ(6,4,1) occ(14,4,5) occ(22,4,3) occ(32,4,2) occ(48,4,6) occ(7,5,6) occ(16,5,3) occ(20,5,1) occ(50,5,8) occ(4,6,2) occ(9,6,8) occ(13,6,6) occ(24,6,4) occ(30,6,3) occ(15,7,8) occ(26,7,2) occ(11,8,7) occ(28,8,4)
Optimization: -17
Answer: 6
occ(1,7,7) occ(1,3,8) occ(1,6,5) occ(1,8,5) occ(1,7,1) occ(1,7,6) occ(1,5,5) occ(1,4,7) occ(2,7,4) occ(3,5,2) coverage(19) occ(10,1,4) occ(36,1,5) occ(42,1,6) occ(8,2,2) occ(12,2,6) occ(40,2,8) occ(46,2,7) occ(18,3,2) occ(34,3,4) occ(38,3,6) occ(44,3,5) occ(5,4,4) occ(6,4,1) occ(14,4,5) occ(22,4,3) occ(32,4,2) occ(48,4,6) occ(7,5,6) occ(16,5,3) occ(20,5,1) occ(50,5,8) occ(4,6,2) occ(9,6,8) occ(13,6,6) occ(24,6,4) occ(30,6,3) occ(15,7,8) occ(26,7,2) occ(11,8,7) occ(17,8,6) occ(28,8,4)
Optimization: -19
Answer: 7
occ(1,7,7) occ(1,3,8) occ(1,6,5) occ(1,8,5) occ(1,7,1) occ(1,7,6) occ(1,5,5) occ(1,4,7) occ(2,7,4) occ(3,5,2) coverage(21) occ(19,1,8) occ(24,1,3) occ(34,1,6) occ(40,1,5) occ(22,2,1) occ(32,2,4) occ(36,2,8) occ(44,2,2) occ(17,3,7) occ(26,3,2) occ(38,3,6) occ(42,3,4) occ(5,4,4) occ(10,4,5) occ(20,4,2) occ(30,4,3) occ(46,4,1) occ(7,5,6) occ(8,5,7) occ(12,5,3) occ(15,5,8) occ(18,5,4) occ(28,5,1) occ(9,6,8) occ(13,6,6) occ(14,6,1) occ(48,6,2) occ(6,7,8) occ(16,7,3) occ(4,8,6) occ(11,8,7) occ(50,8,1)
Optimization: -21
Answer: 8
occ(1,7,7) occ(1,3,8) occ(1,6,5) occ(1,8,5) occ(1,7,1) occ(1,7,6) occ(1,5,5) occ(1,4,7) occ(2,7,4) occ(3,5,2) coverage(23) occ(16,1,3) occ(20,1,7) occ(34,1,6) occ(38,1,8) occ(42,1,4) occ(14,2,1) occ(18,2,5) occ(32,2,4) occ(40,2,6) occ(44,2,2) occ(22,3,6) occ(26,3,2) occ(36,3,7) occ(12,4,2) occ(24,4,4) occ(30,4,3) occ(46,4,1) occ(7,5,6) occ(10,5,4) occ(28,5,1) occ(5,6,4) occ(6,6,1) occ(9,6,8) occ(13,6,6) occ(19,6,7) occ(48,6,2) occ(8,7,3) occ(15,7,8) occ(4,8,2) occ(11,8,7) occ(17,8,6) occ(21,8,8) occ(50,8,1)
Optimization: -23
Answer: 9
occ(1,7,7) occ(1,3,8) occ(1,6,5) occ(1,8,5) occ(1,7,1) occ(1,7,6) occ(1,5,5) occ(1,4,7) occ(2,7,4) occ(3,5,2) coverage(25) occ(16,1,3) occ(20,1,7) occ(34,1,6) occ(38,1,8) occ(42,1,4) occ(14,2,1) occ(18,2,5) occ(23,2,7) occ(32,2,4) occ(40,2,6) occ(44,2,2) occ(22,3,6) occ(26,3,2) occ(36,3,7) occ(12,4,2) occ(21,4,8) occ(24,4,4) occ(30,4,3) occ(46,4,1) occ(7,5,6) occ(10,5,4) occ(28,5,1) occ(5,6,4) occ(6,6,1) occ(9,6,8) occ(13,6,6) occ(19,6,7) occ(48,6,2) occ(8,7,3) occ(15,7,8) occ(4,8,2) occ(11,8,7) occ(17,8,6) occ(50,8,1)
Optimization: -25
Answer: 10
occ(1,7,7) occ(1,3,8) occ(1,6,5) occ(1,8,5) occ(1,7,1) occ(1,7,6) occ(1,5,5) occ(1,4,7) occ(2,7,4) occ(3,5,2) coverage(27) occ(16,1,3) occ(20,1,7) occ(25,1,5) occ(34,1,6) occ(38,1,8) occ(42,1,4) occ(14,2,1) occ(18,2,5) occ(23,2,7) occ(32,2,4) occ(40,2,6) occ(44,2,2) occ(22,3,6) occ(26,3,2) occ(36,3,7) occ(12,4,2) occ(21,4,8) occ(24,4,4) occ(30,4,3) occ(46,4,1) occ(7,5,6) occ(10,5,4) occ(28,5,1) occ(5,6,4) occ(6,6,1) occ(9,6,8) occ(13,6,6) occ(19,6,7) occ(48,6,2) occ(8,7,3) occ(15,7,8) occ(4,8,2) occ(11,8,7) occ(17,8,6) occ(50,8,1)
Optimization: -27
Answer: 11
occ(1,7,7) occ(1,3,8) occ(1,6,5) occ(1,8,5) occ(1,7,1) occ(1,7,6) occ(1,5,5) occ(1,4,7) occ(2,7,4) occ(3,5,2) coverage(29) occ(16,1,3) occ(20,1,7) occ(34,1,6) occ(38,1,8) occ(42,1,4) occ(14,2,1) occ(18,2,5) occ(32,2,4) occ(40,2,6) occ(44,2,2) occ(22,3,6) occ(26,3,2) occ(36,3,7) occ(12,4,2) occ(17,4,6) occ(24,4,4) occ(27,4,5) occ(30,4,3) occ(46,4,1) occ(7,5,6) occ(10,5,4) occ(15,5,8) occ(25,5,7) occ(28,5,1) occ(5,6,4) occ(6,6,1) occ(9,6,8) occ(13,6,6) occ(19,6,7) occ(48,6,2) occ(8,7,3) occ(23,7,8) occ(4,8,2) occ(11,8,7) occ(21,8,6) occ(50,8,1)
Optimization: -29
Answer: 12
occ(1,7,7) occ(1,3,8) occ(1,6,5) occ(1,8,5) occ(1,7,1) occ(1,7,6) occ(1,5,5) occ(1,4,7) occ(2,7,4) occ(3,5,2) coverage(30) occ(24,1,3) occ(31,1,8) occ(41,1,7) occ(47,1,6) occ(51,1,2) occ(61,1,5) occ(8,2,2) occ(22,2,1) occ(29,2,6) occ(39,2,5) occ(45,2,8) occ(49,2,4) occ(55,2,3) occ(59,2,7) occ(25,3,3) occ(26,3,2) occ(33,3,7) occ(43,3,6) occ(53,3,1) occ(57,3,5) occ(63,3,4) occ(5,4,4) occ(6,4,1) occ(10,4,3) occ(20,4,2) occ(27,4,5) occ(37,4,6) occ(7,5,6) occ(16,5,3) occ(23,5,4) occ(28,5,1) occ(35,5,8) occ(4,6,2) occ(9,6,8) occ(12,6,4) occ(13,6,6) occ(18,6,1) occ(19,6,7) occ(14,7,2) occ(15,7,8) occ(21,7,5) occ(11,8,7) occ(17,8,6)
Optimization: -30
Answer: 13
occ(1,7,7) occ(1,3,8) occ(1,6,5) occ(1,8,5) occ(1,7,1) occ(1,7,6) occ(1,5,5) occ(1,4,7) occ(2,7,4) occ(3,5,2) coverage(31) occ(7,1,4) occ(16,1,3) occ(20,1,7) occ(9,2,2) occ(14,2,1) occ(18,2,5) occ(5,3,3) occ(17,3,7) occ(22,3,6) occ(23,3,4) occ(26,3,2) occ(11,4,3) occ(12,4,2) occ(21,4,6) occ(24,4,4) occ(27,4,5) occ(10,5,4) occ(15,5,6) occ(19,5,8) occ(25,5,3) occ(28,5,1) occ(6,6,1) occ(13,6,4) occ(29,6,6) occ(30,6,3) occ(36,6,8) occ(8,7,3) occ(32,7,5) occ(4,8,2) occ(34,8,7)
Optimization: -31
Answer: 14
occ(1,7,7) occ(1,3,8) occ(1,6,5) occ(1,8,5) occ(1,7,1) occ(1,7,6) occ(1,5,5) occ(1,4,7) occ(2,7,4) occ(3,5,2) coverage(32) occ(24,1,3) occ(39,1,4) occ(43,1,8) occ(47,1,6) occ(51,1,2) occ(57,1,5) occ(7,2,5) occ(22,2,1) occ(35,2,7) occ(41,2,6) occ(49,2,4) occ(55,2,3) occ(5,3,3) occ(26,3,2) occ(37,3,5) occ(45,3,7) occ(53,3,1) occ(59,3,6) occ(8,4,8) occ(9,4,4) occ(20,4,2) occ(23,4,1) occ(27,4,5) occ(30,4,3) occ(33,4,6) occ(10,5,6) occ(14,5,4) occ(25,5,3) occ(28,5,1) occ(31,5,8) occ(61,5,7) occ(6,6,7) occ(11,6,3) occ(17,6,4) occ(18,6,1) occ(21,6,2) occ(29,6,6) occ(12,7,5) occ(15,7,2) occ(16,7,3) occ(63,7,8) occ(4,8,6) occ(13,8,4) occ(19,8,3)
Optimization: -32
Answer: 15
occ(1,7,7) occ(1,3,8) occ(1,6,5) occ(1,8,5) occ(1,7,1) occ(1,7,6) occ(1,5,5) occ(1,4,7) occ(2,7,4) occ(3,5,2) coverage(33) occ(24,1,3) occ(7,2,5) occ(22,2,1) occ(32,2,2) occ(5,3,3) occ(26,3,2) occ(8,4,8) occ(9,4,4) occ(20,4,2) occ(23,4,1) occ(27,4,5) occ(30,4,3) occ(10,5,6) occ(14,5,4) occ(25,5,3) occ(28,5,1) occ(31,5,8) occ(6,6,7) occ(11,6,3) occ(17,6,4) occ(18,6,1) occ(21,6,2) occ(29,6,6) occ(12,7,5) occ(15,7,2) occ(16,7,3) occ(4,8,6) occ(13,8,4) occ(19,8,3)
Optimization: -33
Answer: 16
occ(1,7,7) occ(1,3,8) occ(1,6,5) occ(1,8,5) occ(1,7,1) occ(1,7,6) occ(1,5,5) occ(1,4,7) occ(2,7,4) occ(3,5,2) coverage(34) occ(14,1,4) occ(24,1,3) occ(37,1,5) occ(43,1,8) occ(47,1,6) occ(51,1,2) occ(57,1,1) occ(7,2,5) occ(12,2,2) occ(22,2,1) occ(35,2,7) occ(41,2,6) occ(49,2,4) occ(55,2,3) occ(5,3,3) occ(16,3,5) occ(26,3,2) occ(39,3,4) occ(45,3,7) occ(53,3,1) occ(9,4,4) occ(10,4,1) occ(20,4,2) occ(30,4,3) occ(33,4,6) occ(8,5,3) occ(18,5,4) occ(23,5,6) occ(28,5,1) occ(31,5,8) occ(6,6,1) occ(11,6,3) occ(17,6,4) occ(25,6,8) occ(29,6,6) occ(32,6,2) occ(15,7,2) occ(21,7,5) occ(4,8,2) occ(13,8,4) occ(19,8,3) occ(27,8,7)
Optimization: -34
Answer: 17
occ(1,7,7) occ(1,3,8) occ(1,6,5) occ(1,8,5) occ(1,7,1) occ(1,7,6) occ(1,5,5) occ(1,4,7) occ(2,7,4) occ(3,5,2) coverage(35) occ(9,1,1) occ(10,1,4) occ(32,1,7) occ(54,1,2) occ(7,2,3) occ(8,2,2) occ(26,2,1) occ(30,2,5) occ(48,2,6) occ(52,2,4) occ(11,3,2) occ(12,3,5) occ(28,3,3) occ(34,3,6) occ(46,3,4) occ(56,3,1) occ(5,4,4) occ(6,4,1) occ(24,4,2) occ(29,4,8) occ(44,4,6) occ(50,4,5) occ(4,5,3) occ(13,5,1) occ(14,5,4) occ(27,5,6) occ(36,5,7) occ(42,5,8) occ(17,6,4) occ(18,6,1) occ(22,6,3) occ(25,6,8) occ(31,6,7) occ(40,6,6) occ(15,7,2) occ(16,7,3) occ(21,7,5) occ(38,7,8) occ(19,8,3) occ(20,8,2) occ(23,8,7) occ(33,8,8)
Optimization: -35
Answer: 18
occ(1,7,7) occ(1,3,8) occ(1,6,5) occ(1,8,5) occ(1,7,1) occ(1,7,6) occ(1,5,5) occ(1,4,7) occ(2,7,4) occ(3,5,2) coverage(44) occ(21,1,5) occ(28,1,3) occ(32,1,7) occ(35,1,4) occ(39,1,6) occ(13,2,2) occ(19,2,3) occ(23,2,7) occ(30,2,5) occ(33,2,6) occ(17,3,1) occ(26,3,2) occ(31,3,4) occ(34,3,6) occ(37,3,5) occ(41,3,7) occ(10,4,5) occ(11,4,1) occ(15,4,3) occ(16,4,4) occ(25,4,6) occ(29,4,2) occ(36,4,8) occ(8,5,3) occ(14,5,6) occ(24,5,1) occ(27,5,4) occ(43,5,8) occ(6,6,1) occ(9,6,2) occ(12,6,4) occ(18,6,3) occ(38,6,7) occ(45,6,6) occ(5,7,3) occ(22,7,2) occ(42,7,8) occ(49,7,5) occ(4,8,2) occ(7,8,1) occ(20,8,4) occ(40,8,6) occ(47,8,7) occ(51,8,3)
Optimization: -44
Answer: 19
occ(1,7,7) occ(1,3,8) occ(1,6,5) occ(1,8,5) occ(1,7,1) occ(1,7,6) occ(1,5,5) occ(1,4,7) occ(2,7,4) occ(3,5,2) coverage(46) occ(21,1,5) occ(28,1,3) occ(32,1,7) occ(35,1,4) occ(39,1,6) occ(13,2,2) occ(19,2,3) occ(23,2,7) occ(30,2,5) occ(33,2,6) occ(17,3,1) occ(26,3,2) occ(31,3,4) occ(34,3,6) occ(37,3,5) occ(41,3,7) occ(10,4,5) occ(11,4,1) occ(15,4,3) occ(16,4,4) occ(25,4,6) occ(29,4,2) occ(36,4,8) occ(8,5,3) occ(14,5,6) occ(24,5,1) occ(27,5,4) occ(43,5,8) occ(44,5,7) occ(6,6,1) occ(9,6,2) occ(12,6,4) occ(18,6,3) occ(38,6,7) occ(45,6,6) occ(5,7,3) occ(22,7,2) occ(42,7,8) occ(49,7,5) occ(4,8,2) occ(7,8,1) occ(20,8,4) occ(40,8,6) occ(47,8,7) occ(51,8,3)
Optimization: -46
Answer: 20
occ(1,7,7) occ(1,3,8) occ(1,6,5) occ(1,8,5) occ(1,7,1) occ(1,7,6) occ(1,5,5) occ(1,4,7) occ(2,7,4) occ(3,5,2) coverage(48) occ(21,1,5) occ(28,1,3) occ(32,1,7) occ(35,1,4) occ(39,1,6) occ(13,2,2) occ(19,2,3) occ(23,2,7) occ(30,2,5) occ(33,2,6) occ(17,3,1) occ(26,3,2) occ(31,3,4) occ(34,3,6) occ(37,3,5) occ(41,3,7) occ(10,4,5) occ(11,4,1) occ(15,4,3) occ(16,4,4) occ(25,4,6) occ(29,4,2) occ(8,5,3) occ(14,5,6) occ(24,5,1) occ(27,5,4) occ(36,5,7) occ(43,5,8) occ(6,6,1) occ(9,6,2) occ(12,6,4) occ(18,6,3) occ(42,6,7) occ(45,6,6) occ(49,6,8) occ(5,7,3) occ(22,7,2) occ(38,7,8) occ(44,7,5) occ(4,8,2) occ(7,8,1) occ(20,8,4) occ(40,8,6) occ(46,8,3) occ(47,8,7)
Optimization: -48
Answer: 21
occ(1,7,7) occ(1,3,8) occ(1,6,5) occ(1,8,5) occ(1,7,1) occ(1,7,6) occ(1,5,5) occ(1,4,7) occ(2,7,4) occ(3,5,2) coverage(49) occ(21,1,5) occ(28,1,3) occ(32,1,7) occ(35,1,8) occ(38,1,2) occ(42,1,4) occ(46,1,6) occ(13,2,2) occ(19,2,3) occ(23,2,7) occ(30,2,5) occ(33,2,6) occ(36,2,4) occ(48,2,8) occ(17,3,1) occ(26,3,2) occ(31,3,4) occ(34,3,6) occ(37,3,7) occ(40,3,3) occ(44,3,5) occ(10,4,5) occ(11,4,1) occ(15,4,3) occ(16,4,4) occ(25,4,6) occ(29,4,2) occ(8,5,3) occ(14,5,6) occ(24,5,1) occ(27,5,4) occ(39,5,8) occ(6,6,1) occ(9,6,2) occ(12,6,4) occ(18,6,3) occ(41,6,6) occ(47,6,7) occ(5,7,3) occ(22,7,2) occ(45,7,5) occ(4,8,2) occ(7,8,1) occ(20,8,4) occ(43,8,7)
Optimization: -49
Answer: 22
occ(1,7,7) occ(1,3,8) occ(1,6,5) occ(1,8,5) occ(1,7,1) occ(1,7,6) occ(1,5,5) occ(1,4,7) occ(2,7,4) occ(3,5,2) coverage(50) occ(21,1,5) occ(28,1,3) occ(32,1,7) occ(35,1,8) occ(38,1,2) occ(42,1,4) occ(46,1,6) occ(13,2,2) occ(19,2,3) occ(23,2,7) occ(30,2,5) occ(33,2,6) occ(36,2,4) occ(48,2,8) occ(17,3,1) occ(26,3,2) occ(31,3,4) occ(34,3,6) occ(37,3,7) occ(40,3,3) occ(44,3,5) occ(10,4,5) occ(11,4,1) occ(15,4,3) occ(16,4,4) occ(25,4,6) occ(29,4,2) occ(8,5,3) occ(14,5,6) occ(24,5,1) occ(27,5,4) occ(39,5,8) occ(53,5,7) occ(6,6,1) occ(9,6,2) occ(12,6,4) occ(18,6,3) occ(41,6,6) occ(47,6,7) occ(5,7,3) occ(22,7,2) occ(45,7,5) occ(51,7,8) occ(4,8,2) occ(7,8,1) occ(20,8,4) occ(43,8,7) occ(49,8,6)
Optimization: -50
Answer: 23
occ(1,7,7) occ(1,3,8) occ(1,6,5) occ(1,8,5) occ(1,7,1) occ(1,7,6) occ(1,5,5) occ(1,4,7) occ(2,7,4) occ(3,5,2) coverage(51) occ(21,1,5) occ(28,1,3) occ(32,1,7) occ(35,1,8) occ(39,1,6) occ(43,1,4) occ(47,1,2) occ(13,2,2) occ(19,2,3) occ(23,2,7) occ(30,2,5) occ(33,2,6) occ(49,2,4) occ(17,3,1) occ(26,3,2) occ(31,3,4) occ(34,3,6) occ(37,3,7) occ(41,3,5) occ(45,3,3) occ(10,4,5) occ(11,4,1) occ(15,4,3) occ(16,4,4) occ(25,4,6) occ(29,4,2) occ(36,4,8) occ(8,5,3) occ(14,5,6) occ(24,5,1) occ(27,5,4) occ(6,6,1) occ(9,6,2) occ(12,6,4) occ(18,6,3) occ(38,6,7) occ(44,6,6) occ(5,7,3) occ(22,7,2) occ(42,7,8) occ(48,7,5) occ(4,8,2) occ(7,8,1) occ(20,8,4) occ(40,8,6) occ(46,8,7) occ(50,8,3)
Optimization: -51
Answer: 24
occ(1,7,7) occ(1,3,8) occ(1,6,5) occ(1,8,5) occ(1,7,1) occ(1,7,6) occ(1,5,5) occ(1,4,7) occ(2,7,4) occ(3,5,2) coverage(52) occ(7,1,2) occ(13,1,3) occ(37,1,5) occ(43,1,4) occ(47,1,8) occ(51,1,6) occ(11,2,1) occ(15,2,5) occ(28,2,2) occ(32,2,4) occ(35,2,7) occ(39,2,3) occ(45,2,6) occ(53,2,8) occ(5,3,1) occ(9,3,3) occ(19,3,2) occ(31,3,4) occ(34,3,6) occ(41,3,5) occ(49,3,7) occ(10,4,5) occ(17,4,4) occ(26,4,1) occ(29,4,2) occ(30,4,3) occ(33,4,6) occ(36,4,8) occ(8,5,3) occ(14,5,6) occ(21,5,1) occ(46,5,4) occ(6,6,1) occ(12,6,4) occ(16,6,8) occ(24,6,2) occ(27,6,3) occ(38,6,7) occ(44,6,6) occ(20,7,5) occ(23,7,2) occ(42,7,8) occ(48,7,3) occ(4,8,2) occ(18,8,7) occ(22,8,3) occ(25,8,4) occ(40,8,6) occ(50,8,1)
Optimization: -52
Answer: 25
occ(1,7,7) occ(1,3,8) occ(1,6,5) occ(1,8,5) occ(1,7,1) occ(1,7,6) occ(1,5,5) occ(1,4,7) occ(2,7,4) occ(3,5,2) coverage(53) occ(23,1,2) occ(24,1,3) occ(27,1,6) occ(32,1,7) occ(37,1,5) occ(43,1,4) occ(17,2,2) occ(25,2,4) occ(26,2,1) occ(30,2,5) occ(35,2,7) occ(39,2,3) occ(45,2,6) occ(21,3,1) occ(22,3,2) occ(28,3,3) occ(29,3,7) occ(34,3,6) occ(41,3,5) occ(47,3,4) occ(5,4,4) occ(15,4,1) occ(19,4,3) occ(33,4,6) occ(36,4,8) occ(46,4,5) occ(49,4,2) occ(7,5,6) occ(13,5,3) occ(20,5,1) occ(31,5,8) occ(44,5,7) occ(51,5,4) occ(6,6,1) occ(9,6,4) occ(12,6,2) occ(18,6,3) occ(38,6,7) occ(48,6,6) occ(52,6,8) occ(8,7,3) occ(11,7,2) occ(16,7,5) occ(42,7,8) occ(4,8,2) occ(10,8,1) occ(14,8,3) occ(40,8,6) occ(50,8,7)
Optimization: -53
Answer: 26
occ(1,7,7) occ(1,3,8) occ(1,6,5) occ(1,8,5) occ(1,7,1) occ(1,7,6) occ(1,5,5) occ(1,4,7) occ(2,7,4) occ(3,5,2) coverage(54) occ(11,1,2) occ(15,1,6) occ(24,1,3) occ(37,1,5) occ(43,1,4) occ(52,1,7) occ(13,2,4) occ(26,2,1) occ(31,2,5) occ(35,2,7) occ(36,2,6) occ(39,2,3) occ(45,2,2) occ(9,3,1) occ(17,3,7) occ(22,3,2) occ(28,3,3) occ(34,3,4) occ(41,3,5) occ(50,3,6) occ(7,4,3) occ(29,4,4) occ(32,4,2) occ(33,4,6) occ(38,4,5) occ(47,4,1) occ(48,4,8) occ(19,5,8) occ(20,5,1) occ(27,5,6) occ(30,5,4) occ(40,5,7) occ(49,5,3) occ(5,6,4) occ(6,6,1) occ(12,6,2) occ(18,6,3) occ(21,6,6) occ(25,6,8) occ(46,6,7) occ(8,7,3) occ(16,7,5) occ(42,7,8) occ(51,7,2) occ(4,8,2) occ(10,8,1) occ(14,8,3) occ(23,8,7) occ(44,8,6) occ(53,8,4)
Optimization: -54
Answer: 27
occ(1,7,7) occ(1,3,8) occ(1,6,5) occ(1,8,5) occ(1,7,1) occ(1,7,6) occ(1,5,5) occ(1,4,7) occ(2,7,4) occ(3,5,2) coverage(55) occ(29,1,7) occ(32,1,5) occ(36,1,1) occ(40,1,3) occ(47,1,6) occ(50,1,4) occ(51,1,2) occ(54,1,8) occ(27,2,5) occ(30,2,7) occ(34,2,3) occ(42,2,1) occ(48,2,2) occ(49,2,4) occ(52,2,6) occ(5,3,3) occ(28,3,5) occ(31,3,6) occ(38,3,2) occ(45,3,7) occ(46,3,4) occ(53,3,1) occ(7,4,1) occ(11,4,5) occ(25,4,6) occ(26,4,3) occ(33,4,8) occ(44,4,2) occ(9,5,3) occ(13,5,7) occ(23,5,4) occ(24,5,1) occ(35,5,6) occ(43,5,8) occ(6,6,1) occ(12,6,2) occ(16,6,4) occ(19,6,7) occ(22,6,3) occ(37,6,8) occ(41,6,6) occ(8,7,3) occ(15,7,8) occ(18,7,2) occ(21,7,5) occ(4,8,2) occ(10,8,1) occ(14,8,3) occ(17,8,6) occ(20,8,4) occ(39,8,7)
Optimization: -55
*** Info : (clingo): INTERRUPTED by signal!
SATISFIABLE

TIME LIMIT   : 1
Models       : 27+
  Optimum    : unknown
Optimization : -55
Calls        : 1
Time         : 300.000s (Solving: 299.70s 1st Model: 0.00s Unsat: 0.00s)
CPU Time     : 300.003s
